\ Model Parallel identical processor scheduling with weighted completion times as set-covering formulation
\ LP format - for model browsing. Use MPS format to capture full model detail.
Minimize
  28871 x_s[0] + 30410 x_s[1] + 29205 x_s[2] + 26735 x_s[3] + 28938 x_s[4]
   + 30046 x_s[5] + 32991 x_s[6] + 26097 x_s[7] + 29108 x_s[8]
   + 26013 x_s[9] + 27569 x_s[10] + 29962 x_s[11] + 26974 x_s[12]
   + 28989 x_s[13] + 30711 x_s[14] + 29318 x_s[15] + 30652 x_s[16]
   + 26550 x_s[17] + 30399 x_s[18] + 27304 x_s[19] + 30512 x_s[20]
   + 27332 x_s[21] + 29205 x_s[22] + 29452 x_s[23] + 27682 x_s[24]
   + 28360 x_s[25] + 29034 x_s[26] + 30769 x_s[27] + 27509 x_s[28]
   + 28539 x_s[29] + 29548 x_s[30] + 28505 x_s[31] + 27725 x_s[32]
   + 28111 x_s[33] + 30254 x_s[34] + 27604 x_s[35] + 30769 x_s[36]
   + 27509 x_s[37] + 28161 x_s[38] + 30134 x_s[39] + 25174 x_s[40]
   + 27322 x_s[41] + 31022 x_s[42] + 30420 x_s[43] + 30274 x_s[44]
   + 28618 x_s[45] + 31227 x_s[46] + 30769 x_s[47] + 26063 x_s[48]
   + 27509 x_s[49]
Subject To
 R0: x_s[0] + x_s[1] + x_s[2] + x_s[3] + x_s[4] + x_s[5] + x_s[6] + x_s[7]
   + x_s[8] + x_s[9] + x_s[10] + x_s[11] + x_s[12] + x_s[13] + x_s[14]
   + x_s[15] + x_s[16] + x_s[17] + x_s[18] + x_s[19] + x_s[20] + x_s[21]
   + x_s[22] + x_s[23] + x_s[24] + x_s[25] + x_s[26] + x_s[27] + x_s[28]
   + x_s[29] + x_s[30] + x_s[31] + x_s[32] + x_s[33] + x_s[34] + x_s[35]
   + x_s[36] + x_s[37] + x_s[38] + x_s[39] + x_s[40] + x_s[41] + x_s[42]
   + x_s[43] + x_s[44] + x_s[45] + x_s[46] + x_s[47] + x_s[48] + x_s[49]
   = 5
 R1: x_s[0] + x_s[5] + x_s[14] + x_s[15] + x_s[20] + x_s[25] + x_s[31]
   + x_s[38] + x_s[44] + x_s[46] = 1
 R2: x_s[2] + x_s[6] + x_s[10] + x_s[18] + x_s[22] + x_s[28] + x_s[32]
   + x_s[37] + x_s[43] + x_s[49] = 1
 R3: x_s[3] + x_s[5] + x_s[14] + x_s[15] + x_s[24] + x_s[26] + x_s[33]
   + x_s[38] + x_s[41] + x_s[46] = 1
 R4: x_s[3] + x_s[5] + x_s[14] + x_s[17] + x_s[20] + x_s[29] + x_s[33]
   + x_s[38] + x_s[44] + x_s[46] = 1
 R5: x_s[3] + x_s[6] + x_s[10] + x_s[17] + x_s[21] + x_s[28] + x_s[34]
   + x_s[37] + x_s[43] + x_s[49] = 1
 R6: x_s[2] + x_s[7] + x_s[10] + x_s[18] + x_s[22] + x_s[27] + x_s[34]
   + x_s[36] + x_s[40] + x_s[47] = 1
 R7: x_s[2] + x_s[9] + x_s[13] + x_s[19] + x_s[22] + x_s[27] + x_s[32]
   + x_s[36] + x_s[41] + x_s[47] = 1
 R8: x_s[4] + x_s[8] + x_s[12] + x_s[16] + x_s[24] + x_s[26] + x_s[30]
   + x_s[39] + x_s[43] + x_s[45] = 1
 R9: x_s[3] + x_s[6] + x_s[10] + x_s[17] + x_s[21] + x_s[28] + x_s[34]
   + x_s[37] + x_s[43] + x_s[49] = 1
 R10: x_s[3] + x_s[9] + x_s[11] + x_s[16] + x_s[23] + x_s[29] + x_s[33]
   + x_s[39] + x_s[41] + x_s[45] = 1
 R11: x_s[1] + x_s[5] + x_s[13] + x_s[17] + x_s[21] + x_s[28] + x_s[32]
   + x_s[37] + x_s[40] + x_s[49] = 1
 R12: x_s[4] + x_s[7] + x_s[14] + x_s[15] + x_s[23] + x_s[25] + x_s[30]
   + x_s[39] + x_s[42] + x_s[45] = 1
 R13: x_s[0] + x_s[5] + x_s[12] + x_s[15] + x_s[24] + x_s[25] + x_s[30]
   + x_s[35] + x_s[41] + x_s[48] = 1
 R14: x_s[1] + x_s[7] + x_s[11] + x_s[18] + x_s[23] + x_s[29] + x_s[33]
   + x_s[35] + x_s[42] + x_s[48] = 1
 R15: x_s[0] + x_s[7] + x_s[12] + x_s[17] + x_s[20] + x_s[25] + x_s[30]
   + x_s[35] + x_s[44] + x_s[48] = 1
 R16: x_s[1] + x_s[8] + x_s[12] + x_s[18] + x_s[24] + x_s[26] + x_s[33]
   + x_s[38] + x_s[40] + x_s[45] = 1
 R17: x_s[4] + x_s[9] + x_s[11] + x_s[16] + x_s[23] + x_s[26] + x_s[31]
   + x_s[39] + x_s[40] + x_s[45] = 1
 R18: x_s[0] + x_s[7] + x_s[10] + x_s[15] + x_s[21] + x_s[25] + x_s[31]
   + x_s[35] + x_s[40] + x_s[48] = 1
 R19: x_s[2] + x_s[9] + x_s[13] + x_s[19] + x_s[22] + x_s[27] + x_s[32]
   + x_s[36] + x_s[41] + x_s[47] = 1
 R20: x_s[4] + x_s[7] + x_s[14] + x_s[15] + x_s[23] + x_s[25] + x_s[30]
   + x_s[39] + x_s[42] + x_s[48] = 1
 R21: x_s[1] + x_s[8] + x_s[10] + x_s[19] + x_s[20] + x_s[28] + x_s[32]
   + x_s[37] + x_s[42] + x_s[49] = 1
 R22: x_s[1] + x_s[6] + x_s[11] + x_s[18] + x_s[23] + x_s[28] + x_s[34]
   + x_s[37] + x_s[42] + x_s[49] = 1
 R23: x_s[2] + x_s[9] + x_s[13] + x_s[19] + x_s[22] + x_s[27] + x_s[32]
   + x_s[36] + x_s[41] + x_s[47] = 1
 R24: x_s[2] + x_s[9] + x_s[13] + x_s[19] + x_s[22] + x_s[27] + x_s[32]
   + x_s[36] + x_s[41] + x_s[47] = 1
 R25: x_s[1] + x_s[8] + x_s[13] + x_s[19] + x_s[21] + x_s[27] + x_s[34]
   + x_s[36] + x_s[42] + x_s[47] = 1
 R26: x_s[3] + x_s[7] + x_s[10] + x_s[17] + x_s[21] + x_s[29] + x_s[33]
   + x_s[35] + x_s[40] + x_s[48] = 1
 R27: x_s[1] + x_s[8] + x_s[12] + x_s[18] + x_s[21] + x_s[28] + x_s[30]
   + x_s[37] + x_s[42] + x_s[49] = 1
 R28: x_s[0] + x_s[5] + x_s[11] + x_s[16] + x_s[20] + x_s[29] + x_s[31]
   + x_s[35] + x_s[44] + x_s[46] = 1
 R29: x_s[4] + x_s[8] + x_s[12] + x_s[16] + x_s[24] + x_s[26] + x_s[30]
   + x_s[39] + x_s[40] + x_s[45] = 1
 R30: x_s[4] + x_s[6] + x_s[14] + x_s[15] + x_s[24] + x_s[26] + x_s[31]
   + x_s[38] + x_s[43] + x_s[46] = 1
Bounds
Binaries
 x_s[0] x_s[1] x_s[2] x_s[3] x_s[4] x_s[5] x_s[6] x_s[7] x_s[8] x_s[9]
 x_s[10] x_s[11] x_s[12] x_s[13] x_s[14] x_s[15] x_s[16] x_s[17] x_s[18]
 x_s[19] x_s[20] x_s[21] x_s[22] x_s[23] x_s[24] x_s[25] x_s[26] x_s[27]
 x_s[28] x_s[29] x_s[30] x_s[31] x_s[32] x_s[33] x_s[34] x_s[35] x_s[36]
 x_s[37] x_s[38] x_s[39] x_s[40] x_s[41] x_s[42] x_s[43] x_s[44] x_s[45]
 x_s[46] x_s[47] x_s[48] x_s[49]
End
